p cnf 242 508
-67 68 44 -60 0
72 81 82 84 0
72 81 82 -84 0
72 81 -82 85 0
72 81 -82 -85 0
72 -81 83 86 0
72 -81 83 -86 0
72 -81 -83 87 0
72 -81 -83 -87 0
-62 52 77 9 0
32 7 26 53 0
32 -28 -71 26 0
-58 -35 -68 44 0
-5 43 18 -11 0
-10 -55 24 25 0
-64 2 -79 14 0
-69 -33 -28 -71 0
9 38 75 -52 0
-67 -34 -12 -60 0
-45 42 57 -70 0
70 88 89 91 0
70 88 89 -91 0
70 88 -89 92 0
70 88 -89 -92 0
70 -88 90 93 0
70 -88 90 -93 0
70 -88 -90 94 0
70 -88 -90 -94 0
13 65 74 -4 0
52 9 -30 -40 0
-34 54 -12 66 0
42 45 57 70 0
-77 9 -52 -62 0
-5 43 -14 64 0
-1 48 -26 32 0
-44 78 68 -63 0
-80 -47 95 96 0
-80 -47 95 -96 0
-80 -47 -95 97 0
-80 -47 -95 -97 0
67 -60 68 -44 0
66 54 -3 46 0
-23 -31 -22 21 0
-55 -73 10 8 0
-14 13 -4 64 0
51 -62 -19 -77 0
-49 98 99 101 0
-49 98 99 -101 0
-49 98 -99 102 0
-49 98 -99 -102 0
-49 -98 100 103 0
-49 -98 100 -103 0
-49 -98 -100 104 0
-49 -98 -100 -104 0
12 -34 -54 66 0
35 70 -57 58 0
7 53 47 80 0
63 31 -23 78 0
4 -13 16 -76 0
-50 62 77 41 0
-2 71 -28 79 0
-3 21 -46 -22 0
-74 70 -65 -57 0
55 8 73 10 0
-33 77 -69 -62 0
26 -32 -71 28 0
22 17 20 -21 0
-76 -51 19 16 0
-15 61 105 106 0
-15 61 105 -106 0
-15 61 -105 107 0
-15 61 -105 -107 0
-44 68 35 58 0
5 -56 27 -43 0
-69 33 42 -45 0
-13 -12 -4 -34 0
-51 19 -42 45 0
57 74 70 -65 0
50 41 11 18 0
-36 27 56 59 0
-5 43 -19 51 0
-53 47 7 -80 0
40 17 -30 20 0
-8 11 -73 -18 0
10 80 -47 55 0
-79 -71 28 2 0
50 -61 41 15 0
79 38 -2 75 0
48 -1 55 10 0
-69 -33 -72 6 0
9 52 80 47 0
-24 48 -1 -25 0
-15 58 -61 35 0
2 -39 -29 79 0
-55 -10 -48 1 0
76 -54 -16 66 0
8 15 -61 -73 0
-20 17 108 109 0
-20 17 108 -109 0
-20 17 -108 110 0
-20 17 -108 -110 0
-52 80 -47 9 0
25 -24 10 -55 0
58 37 49 -35 0
-54 66 64 -14 0
19 77 -51 62 0
-65 -13 4 -74 0
-50 -20 41 -17 0
-26 -32 111 112 0
-26 -32 111 -112 0
-26 -32 -111 113 0
-26 -32 -111 -113 0
3 60 46 -67 0
4 13 114 115 0
4 13 114 -115 0
4 13 -114 116 0
4 13 -114 -116 0
52 77 -9 62 0
-16 51 76 -19 0
-63 30 78 -40 0
-37 49 -42 45 0
57 6 70 -72 0
11 -73 18 8 0
-41 -29 39 50 0
-8 -73 -10 -55 0
-50 -41 117 118 0
-50 -41 117 -118 0
-50 -41 -117 119 0
-50 -41 -117 -119 0
25 1 -24 48 0
23 74 31 65 0
74 -4 -13 -65 0
-25 24 120 121 0
-25 24 120 -121 0
-25 24 -120 122 0
-25 24 -120 -122 0
-69 45 -33 42 0
60 67 123 124 0
60 67 123 -124 0
60 67 -123 125 0
60 67 -123 -125 0
5 -18 11 -43 0
37 -45 42 -49 0
59 -36 -69 -33 0
-68 -78 44 63 0
41 -50 11 -18 0
65 74 79 -2 0
6 57 72 -70 0
-39 41 50 -29 0
32 71 -28 -26 0
1 48 10 -55 0
13 46 3 -4 0
23 22 31 -21 0
6 126 127 129 0
6 126 127 -129 0
6 126 -127 130 0
6 126 -127 -130 0
6 -126 128 131 0
6 -126 128 -131 0
6 -126 -128 132 0
6 -126 -128 -132 0
-27 -56 133 134 0
-27 -56 133 -134 0
-27 -56 -133 135 0
-27 -56 -133 -135 0
55 -10 136 137 0
55 -10 136 -137 0
55 -10 -136 138 0
55 -10 -136 -138 0
3 46 -30 40 0
9 -30 40 -52 0
-52 -9 139 140 0
-52 -9 139 -140 0
-52 -9 -139 141 0
-52 -9 -139 -141 0
6 -24 72 -25 0
-21 3 46 22 0
-72 6 56 27 0
65 -74 142 143 0
65 -74 142 -143 0
65 -74 -142 144 0
65 -74 -142 -144 0
-79 -2 145 146 0
-79 -2 145 -146 0
-79 -2 -145 147 0
-79 -2 -145 -147 0
44 -23 68 31 0
72 6 33 -69 0
-29 48 1 -39 0
71 28 148 149 0
71 28 148 -149 0
71 28 -148 150 0
71 28 -148 -150 0
22 -21 -16 76 0
12 8 73 -34 0
-54 46 3 66 0
55 10 -25 -24 0
-5 -24 -25 43 0
68 -62 44 77 0
-57 151 152 154 0
-57 151 152 -154 0
-57 151 -152 155 0
-57 151 -152 -155 0
-57 -151 153 156 0
-57 -151 153 -156 0
-57 -151 -153 157 0
-57 -151 -153 -157 0
-76 -22 16 21 0
-16 22 21 -76 0
71 -28 33 -69 0
-53 26 -32 7 0
32 26 1 48 0
-69 33 -62 -77 0
-39 38 -75 -29 0
-65 -55 -74 -10 0
-43 -5 19 51 0
6 49 -72 37 0
32 -26 36 59 0
-49 63 37 -78 0
38 75 -45 42 0
-54 -66 158 159 0
-54 -66 158 -159 0
-54 -66 -158 160 0
-54 -66 -158 -160 0
-69 36 33 59 0
-44 68 -31 -23 0
-13 14 4 -64 0
22 -3 46 21 0
-27 56 59 36 0
23 -16 31 76 0
70 -57 -37 49 0
-27 56 -5 43 0
11 18 -5 -43 0
47 -9 -80 52 0
32 15 26 -61 0
-4 -3 46 -13 0
69 -59 -36 -33 0
11 -71 -18 28 0
-12 54 34 -66 0
15 61 -26 32 0
18 -11 73 8 0
71 20 -28 17 0
-74 -65 -23 -31 0
-75 -9 52 -38 0
-76 -66 54 16 0
-16 -76 51 19 0
45 70 -42 -57 0
-72 6 -24 25 0
29 39 161 162 0
29 39 161 -162 0
29 39 -161 163 0
29 39 -161 -163 0
-11 18 -28 71 0
37 -49 -58 -35 0
34 -8 -73 -12 0
13 -4 -34 12 0
42 45 19 51 0
-3 -60 -46 67 0
-59 -36 26 -32 0
-78 31 23 63 0
17 20 -41 50 0
45 -42 -33 69 0
-77 62 164 165 0
-77 62 164 -165 0
-77 62 -164 166 0
-77 62 -164 -166 0
5 43 167 168 0
5 43 167 -168 0
5 43 -167 169 0
5 43 -167 -169 0
29 -48 1 -39 0
-62 51 77 19 0
2 29 -79 -39 0
2 -75 -38 -79 0
1 26 -48 -32 0
54 -76 -16 66 0
25 -24 -5 -43 0
37 49 45 42 0
-35 -70 57 -58 0
69 33 170 171 0
69 33 170 -171 0
69 33 -170 172 0
69 33 -170 -172 0
27 38 -75 56 0
-26 -7 32 53 0
-30 40 8 73 0
-19 42 -45 51 0
-37 -72 -6 49 0
-34 12 -47 80 0
-11 -18 173 174 0
-11 -18 173 -174 0
-11 -18 -173 175 0
-11 -18 -173 -175 0
-37 -49 176 177 0
-37 -49 176 -177 0
-37 -49 -176 178 0
-37 -49 -176 -178 0
-17 28 -20 -71 0
-17 20 -30 -40 0
-6 -72 25 24 0
41 77 -62 50 0
7 -14 -64 53 0
69 -33 -71 28 0
-66 19 -51 54 0
75 -27 56 38 0
-61 7 -15 -53 0
-55 47 80 10 0
-61 15 -35 58 0
67 -20 -17 -60 0
-2 64 -14 79 0
29 -50 41 -39 0
38 2 -75 79 0
60 -67 12 -34 0
75 -38 179 180 0
75 -38 179 -180 0
75 -38 -179 181 0
75 -38 -179 -181 0
44 -68 23 31 0
59 1 48 -36 0
74 79 -65 2 0
-23 22 21 31 0
-40 30 52 -9 0
18 -28 11 -71 0
-17 20 50 41 0
-51 -19 182 183 0
-51 -19 182 -183 0
-51 -19 -182 184 0
-51 -19 -182 -184 0
-31 16 -23 -76 0
62 77 69 -33 0
-75 -56 -38 27 0
50 -77 -62 -41 0
21 58 22 -35 0
54 -66 -3 -46 0
37 57 70 49 0
18 -11 60 -67 0
-72 -57 -6 70 0
-66 14 -64 54 0
-31 78 -63 -23 0
-12 -73 -34 8 0
50 15 -41 61 0
-70 -57 185 186 0
-70 -57 185 -186 0
-70 -57 -185 187 0
-70 -57 -185 -187 0
-36 -48 1 -59 0
-56 -53 7 27 0
-68 60 -67 44 0
-15 -32 -61 26 0
34 -12 -80 47 0
-53 -7 188 189 0
-53 -7 188 -189 0
-53 -7 -188 190 0
-53 -7 -188 -190 0
-58 -35 -21 22 0
-73 -40 -30 8 0
-72 -6 69 -33 0
-38 45 -42 -75 0
-16 -23 -76 31 0
14 64 191 192 0
14 64 191 -192 0
14 64 -191 193 0
14 64 -191 -193 0
9 63 52 78 0
-4 -14 -64 -13 0
30 -73 -8 -40 0
44 68 58 -35 0
-75 -39 -38 29 0
78 -37 49 -63 0
-59 47 -36 -80 0
22 -17 20 21 0
-60 -67 -17 20 0
38 45 -75 42 0
-29 -24 25 -39 0
76 16 194 195 0
76 16 194 -195 0
76 16 -194 196 0
76 16 -194 -196 0
73 15 8 61 0
-7 53 -14 64 0
-41 18 -11 50 0
38 75 -29 39 0
74 10 65 55 0
10 -55 -65 74 0
9 38 52 -75 0
54 51 19 66 0
-20 21 -17 -22 0
-35 15 -58 61 0
60 -67 20 17 0
-22 -21 197 198 0
-22 -21 197 -198 0
-22 -21 -197 199 0
-22 -21 -197 -199 0
68 -44 77 62 0
-19 51 66 -54 0
-37 200 201 203 0
-37 200 201 -203 0
-37 200 -201 204 0
-37 200 -201 -204 0
-37 -200 202 205 0
-37 -200 202 -205 0
-37 -200 -202 206 0
-37 -200 -202 -206 0
63 78 49 37 0
59 48 36 -1 0
30 40 207 208 0
30 40 207 -208 0
30 40 -207 209 0
30 40 -207 -209 0
-30 -40 46 -3 0
70 58 57 -35 0
-48 -1 210 211 0
-48 -1 210 -211 0
-48 -1 -210 212 0
-48 -1 -210 -212 0
-80 -10 -55 47 0
59 47 -36 80 0
35 -58 213 214 0
35 -58 213 -214 0
35 -58 -213 215 0
35 -58 -213 -215 0
-31 23 216 217 0
-31 23 216 -217 0
-31 23 -216 218 0
-31 23 -216 -218 0
-71 -17 20 -28 0
-77 -62 -68 44 0
48 -29 39 -1 0
-27 56 -7 53 0
31 74 -23 -65 0
78 44 63 68 0
73 -8 219 220 0
73 -8 219 -220 0
73 -8 -219 221 0
73 -8 -219 -221 0
6 72 -49 37 0
-36 -56 -59 27 0
58 -37 49 35 0
-60 -18 11 67 0
65 57 74 -70 0
21 35 -22 58 0
3 -46 222 223 0
3 -46 222 -223 0
3 -46 -222 224 0
3 -46 -222 -224 0
2 -28 79 -71 0
40 63 -30 -78 0
-5 56 27 -43 0
-43 -64 14 5 0
30 -3 -40 -46 0
-3 -60 46 -67 0
76 13 -4 -16 0
-61 -8 -73 -15 0
4 -46 -3 -13 0
-40 78 -30 63 0
-20 -40 30 -17 0
-61 -15 -50 41 0
-48 1 25 24 0
-14 -5 -43 -64 0
34 12 225 226 0
34 12 225 -226 0
34 12 -225 227 0
34 12 -225 -227 0
27 -72 -6 -56 0
63 9 -52 -78 0
18 -60 11 -67 0
-59 36 228 229 0
-59 36 228 -229 0
-59 36 -228 230 0
-59 36 -228 -230 0
-79 -65 2 -74 0
15 53 7 -61 0
79 -14 -64 2 0
-63 -9 78 52 0
66 -14 54 -64 0
14 -53 -64 7 0
-70 57 -49 37 0
-27 6 56 72 0
53 27 56 7 0
-6 72 231 232 0
-6 72 231 -232 0
-6 72 -231 233 0
-6 72 -231 -233 0
59 -47 80 36 0
34 -13 -12 4 0
-7 61 53 15 0
-42 -45 234 235 0
-42 -45 234 -235 0
-42 -45 -234 236 0
-42 -45 -234 -236 0
-63 -78 237 238 0
-63 -78 237 -238 0
-63 -78 -237 239 0
-63 -78 -237 -239 0
-44 -68 240 241 0
-44 -68 240 -241 0
-44 -68 -240 242 0
-44 -68 -240 -242 0
-39 25 24 29 0
79 -29 39 -2 0
5 19 -43 -51 0
47 -12 80 -34 0
-16 -13 -4 -76 0
39 -25 -24 -29 0
26 32 -36 59 0
-7 53 -47 80 0
67 -60 34 -12 0
5 24 25 -43 0

